92 22
224 209
258 12
105 25
115 76
282 255
212 113
299 23
177 93
249 295
13 69
92 277
167 166
160 67
193 7
293 86
140 275
264 113
188 73
298 39
83 58
5 162
94 48
52 197
186 60
256 152
209 157
188 78
164 34
18 63
228 261
255 196
226 19
226 277
33 112
98 154
39 206
14 191
269 140
190 117